(declare-fun x () String)

(assert (str.in.re x (re.union (re.*  (str.to.re "\x4e01") ) (re.union (re.*  (str.to.re "\x4e02") ) (re.union (re.*  (str.to.re "\x4e03") ) (re.union (re.*  (str.to.re "\x4e04") ) (re.union (re.*  (str.to.re "\x4e05") ) (re.union (re.*  (str.to.re "\x4e06") ) (re.union (re.*  (str.to.re "\x4e07") ) (re.union (re.*  (str.to.re "\x4e08") ) (re.union (re.*  (str.to.re "\x4e09") ) (re.union (re.*  (str.to.re "\x4e0a") ) (re.union (re.*  (str.to.re "\x4e0b") ) (re.union (re.*  (str.to.re "\x4e0c") ) (re.union (re.*  (str.to.re "\x4e0d") ) (re.union (re.*  (str.to.re "\x4e0e") ) (re.union (re.*  (str.to.re "\x4e0f") ) (re.union (re.*  (str.to.re "\x4e10") ) (re.union (re.*  (str.to.re "\x4e11") ) (re.union (re.*  (str.to.re "\x4e12") ) (re.union (re.*  (str.to.re "\x4e13") ) (re.union (re.*  (str.to.re "\x4e14") ) (re.union (re.*  (str.to.re "\x4e15") ) (re.union (re.*  (str.to.re "\x4e16") ) (re.union (re.*  (str.to.re "\x4e17") ) (re.union (re.*  (str.to.re "\x4e18") ) (re.union (re.*  (str.to.re "\x4e19") ) (re.union (re.*  (str.to.re "\x4e1a") ) (re.union (re.*  (str.to.re "\x4e1b") ) (re.union (re.*  (str.to.re "\x4e1c") ) (re.union (re.*  (str.to.re "\x4e1d") ) (re.union (re.*  (str.to.re "\x4e1e") ) (re.union (re.*  (str.to.re "\x4e1f") ) (re.union (re.*  (str.to.re "\x4e20") ) (re.union (re.*  (str.to.re "\x4e21") ) (re.union (re.*  (str.to.re "\x4e22") ) (re.union (re.*  (str.to.re "\x4e23") ) (re.union (re.*  (str.to.re "\x4e24") ) (re.union (re.*  (str.to.re "\x4e25") ) (re.union (re.*  (str.to.re "\x4e26") ) (re.union (re.*  (str.to.re "\x4e27") ) (re.union (re.*  (str.to.re "\x4e28") ) (re.union (re.*  (str.to.re "\x4e29") ) (re.union (re.*  (str.to.re "\x4e2a") ) (re.union (re.*  (str.to.re "\x4e2b") ) (re.union (re.*  (str.to.re "\x4e2c") ) (re.union (re.*  (str.to.re "\x4e2d") ) (re.union (re.*  (str.to.re "\x4e2e") ) (re.union (re.*  (str.to.re "\x4e2f") ) (re.union (re.*  (str.to.re "\x4e30") ) (re.union (re.*  (str.to.re "\x4e31") ) (re.union (re.*  (str.to.re "\x4e32") ) (re.union (re.*  (str.to.re "\x4e33") ) (re.union (re.*  (str.to.re "\x4e34") ) (re.union (re.*  (str.to.re "\x4e35") ) (re.union (re.*  (str.to.re "\x4e36") ) (re.union (re.*  (str.to.re "\x4e37") ) (re.union (re.*  (str.to.re "\x4e38") ) (re.union (re.*  (str.to.re "\x4e39") ) (re.union (re.*  (str.to.re "\x4e3a") ) (re.union (re.*  (str.to.re "\x4e3b") ) (re.union (re.*  (str.to.re "\x4e3c") ) (re.union (re.*  (str.to.re "\x4e3d") ) (re.union (re.*  (str.to.re "\x4e3e") ) (re.union (re.*  (str.to.re "\x4e3f") ) (re.union (re.*  (str.to.re "\x4e40") ) (re.union (re.*  (str.to.re "\x4e41") ) (re.union (re.*  (str.to.re "\x4e42") ) (re.union (re.*  (str.to.re "\x4e43") ) (re.union (re.*  (str.to.re "\x4e44") ) (re.union (re.*  (str.to.re "\x4e45") ) (re.union (re.*  (str.to.re "\x4e46") ) (re.union (re.*  (str.to.re "\x4e47") ) (re.union (re.*  (str.to.re "\x4e48") ) (re.union (re.*  (str.to.re "\x4e49") ) (re.union (re.*  (str.to.re "\x4e4a") ) (re.union (re.*  (str.to.re "\x4e4b") ) (re.union (re.*  (str.to.re "\x4e4c") ) (re.union (re.*  (str.to.re "\x4e4d") ) (re.union (re.*  (str.to.re "\x4e4e") ) (re.union (re.*  (str.to.re "\x4e4f") ) (re.union (re.*  (str.to.re "\x4e50") ) (re.union (re.*  (str.to.re "\x4e51") ) (re.union (re.*  (str.to.re "\x4e52") ) (re.union (re.*  (str.to.re "\x4e53") ) (re.union (re.*  (str.to.re "\x4e54") ) (re.union (re.*  (str.to.re "\x4e55") ) (re.union (re.*  (str.to.re "\x4e56") ) (re.union (re.*  (str.to.re "\x4e57") ) (re.union (re.*  (str.to.re "\x4e58") ) (re.union (re.*  (str.to.re "\x4e59") ) (re.union (re.*  (str.to.re "\x4e5a") ) (re.union (re.*  (str.to.re "\x4e5b") ) (re.union (re.*  (str.to.re "\x4e5c") ) (re.union (re.*  (str.to.re "\x4e5d") ) (re.union (re.*  (str.to.re "\x4e5e") ) (re.union (re.*  (str.to.re "\x4e5f") ) (re.union (re.*  (str.to.re "\x4e60") ) (re.union (re.*  (str.to.re "\x4e61") ) (re.union (re.*  (str.to.re "\x4e62") ) (re.union (re.*  (str.to.re "\x4e63") ) (re.union (re.*  (str.to.re "\x4e64") ) (re.union (re.*  (str.to.re "\x4e65") ) (re.union (re.*  (str.to.re "\x4e66") ) (re.union (re.*  (str.to.re "\x4e67") ) (re.union (re.*  (str.to.re "\x4e68") ) (re.union (re.*  (str.to.re "\x4e69") ) (re.union (re.*  (str.to.re "\x4e6a") ) (re.union (re.*  (str.to.re "\x4e6b") ) (re.union (re.*  (str.to.re "\x4e6c") ) (re.union (re.*  (str.to.re "\x4e6d") ) (re.union (re.*  (str.to.re "\x4e6e") ) (re.union (re.*  (str.to.re "\x4e6f") ) (re.union (re.*  (str.to.re "\x4e70") ) (re.union (re.*  (str.to.re "\x4e71") ) (re.union (re.*  (str.to.re "\x4e72") ) (re.union (re.*  (str.to.re "\x4e73") ) (re.union (re.*  (str.to.re "\x4e74") ) (re.union (re.*  (str.to.re "\x4e75") ) (re.union (re.*  (str.to.re "\x4e76") ) (re.union (re.*  (str.to.re "\x4e77") ) (re.union (re.*  (str.to.re "\x4e78") ) (re.union (re.*  (str.to.re "\x4e79") ) (re.union (re.*  (str.to.re "\x4e7a") ) (re.union (re.*  (str.to.re "\x4e7b") ) (re.union (re.*  (str.to.re "\x4e7c") ) (re.union (re.*  (str.to.re "\x4e7d") ) (re.union (re.*  (str.to.re "\x4e7e") ) (re.union (re.*  (str.to.re "\x4e7f") ) (re.union (re.*  (str.to.re "\x4e80") ) (re.union (re.*  (str.to.re "\x4e81") ) (re.union (re.*  (str.to.re "\x4e82") ) (re.union (re.*  (str.to.re "\x4e83") ) (re.union (re.*  (str.to.re "\x4e84") ) (re.union (re.*  (str.to.re "\x4e85") ) (re.union (re.*  (str.to.re "\x4e86") ) (re.union (re.*  (str.to.re "\x4e87") ) (re.union (re.*  (str.to.re "\x4e88") ) (re.union (re.*  (str.to.re "\x4e89") ) (re.union (re.*  (str.to.re "\x4e8a") ) (re.union (re.*  (str.to.re "\x4e8b") ) (re.union (re.*  (str.to.re "\x4e8c") ) (re.union (re.*  (str.to.re "\x4e8d") ) (re.union (re.*  (str.to.re "\x4e8e") ) (re.union (re.*  (str.to.re "\x4e8f") ) (re.union (re.*  (str.to.re "\x4e90") ) (re.union (re.*  (str.to.re "\x4e91") ) (re.union (re.*  (str.to.re "\x4e92") ) (re.union (re.*  (str.to.re "\x4e93") ) (re.union (re.*  (str.to.re "\x4e94") ) (re.union (re.*  (str.to.re "\x4e95") ) (re.union (re.*  (str.to.re "\x4e96") ) (re.union (re.*  (str.to.re "\x4e97") ) (re.union (re.*  (str.to.re "\x4e98") ) (re.union (re.*  (str.to.re "\x4e99") ) (re.union (re.*  (str.to.re "\x4e9a") ) (re.union (re.*  (str.to.re "\x4e9b") ) (re.union (re.*  (str.to.re "\x4e9c") ) (re.union (re.*  (str.to.re "\x4e9d") ) (re.union (re.*  (str.to.re "\x4e9e") ) (re.union (re.*  (str.to.re "\x4e9f") ) (re.union (re.*  (str.to.re "\x4ea0") ) (re.union (re.*  (str.to.re "\x4ea1") ) (re.union (re.*  (str.to.re "\x4ea2") ) (re.union (re.*  (str.to.re "\x4ea3") ) (re.union (re.*  (str.to.re "\x4ea4") ) (re.union (re.*  (str.to.re "\x4ea5") ) (re.union (re.*  (str.to.re "\x4ea6") ) (re.union (re.*  (str.to.re "\x4ea7") ) (re.union (re.*  (str.to.re "\x4ea8") ) (re.union (re.*  (str.to.re "\x4ea9") ) (re.union (re.*  (str.to.re "\x4eaa") ) (re.union (re.*  (str.to.re "\x4eab") ) (re.union (re.*  (str.to.re "\x4eac") ) (re.union (re.*  (str.to.re "\x4ead") ) (re.union (re.*  (str.to.re "\x4eae") ) (re.union (re.*  (str.to.re "\x4eaf") ) (re.union (re.*  (str.to.re "\x4eb0") ) (re.union (re.*  (str.to.re "\x4eb1") ) (re.union (re.*  (str.to.re "\x4eb2") ) (re.union (re.*  (str.to.re "\x4eb3") ) (re.union (re.*  (str.to.re "\x4eb4") ) (re.union (re.*  (str.to.re "\x4eb5") ) (re.union (re.*  (str.to.re "\x4eb6") ) (re.union (re.*  (str.to.re "\x4eb7") ) (re.union (re.*  (str.to.re "\x4eb8") ) (re.union (re.*  (str.to.re "\x4eb9") ) (re.union (re.*  (str.to.re "\x4eba") ) (re.union (re.*  (str.to.re "\x4ebb") ) (re.union (re.*  (str.to.re "\x4ebc") ) (re.union (re.*  (str.to.re "\x4ebd") ) (re.union (re.*  (str.to.re "\x4ebe") ) (re.union (re.*  (str.to.re "\x4ebf") ) (re.union (re.*  (str.to.re "\x4ec0") ) (re.union (re.*  (str.to.re "\x4ec1") ) (re.union (re.*  (str.to.re "\x4ec2") ) (re.union (re.*  (str.to.re "\x4ec3") ) (re.union (re.*  (str.to.re "\x4ec4") ) (re.union (re.*  (str.to.re "\x4ec5") ) (re.union (re.*  (str.to.re "\x4ec6") ) (re.union (re.*  (str.to.re "\x4ec7") ) (re.union (re.*  (str.to.re "\x4ec8") ) (re.union (re.*  (str.to.re "\x4ec9") ) (re.union (re.*  (str.to.re "\x4eca") ) (re.union (re.*  (str.to.re "\x4ecb") ) (re.union (re.*  (str.to.re "\x4ecc") ) (re.union (re.*  (str.to.re "\x4ecd") ) (re.union (re.*  (str.to.re "\x4ece") ) (re.union (re.*  (str.to.re "\x4ecf") ) (re.union (re.*  (str.to.re "\x4ed0") ) (re.union (re.*  (str.to.re "\x4ed1") ) (re.union (re.*  (str.to.re "\x4ed2") ) (re.union (re.*  (str.to.re "\x4ed3") ) (re.union (re.*  (str.to.re "\x4ed4") ) (re.union (re.*  (str.to.re "\x4ed5") ) (re.union (re.*  (str.to.re "\x4ed6") ) (re.union (re.*  (str.to.re "\x4ed7") ) (re.union (re.*  (str.to.re "\x4ed8") ) (re.union (re.*  (str.to.re "\x4ed9") ) (re.union (re.*  (str.to.re "\x4eda") ) (re.union (re.*  (str.to.re "\x4edb") ) (re.union (re.*  (str.to.re "\x4edc") ) (re.union (re.*  (str.to.re "\x4edd") ) (re.union (re.*  (str.to.re "\x4ede") ) (re.union (re.*  (str.to.re "\x4edf") ) (re.union (re.*  (str.to.re "\x4ee0") ) (re.union (re.*  (str.to.re "\x4ee1") ) (re.union (re.*  (str.to.re "\x4ee2") ) (re.union (re.*  (str.to.re "\x4ee3") ) (re.union (re.*  (str.to.re "\x4ee4") ) (re.union (re.*  (str.to.re "\x4ee5") ) (re.union (re.*  (str.to.re "\x4ee6") ) (re.union (re.*  (str.to.re "\x4ee7") ) (re.union (re.*  (str.to.re "\x4ee8") ) (re.union (re.*  (str.to.re "\x4ee9") ) (re.union (re.*  (str.to.re "\x4eea") ) (re.union (re.*  (str.to.re "\x4eeb") ) (re.union (re.*  (str.to.re "\x4eec") ) (re.union (re.*  (str.to.re "\x4eed") ) (re.union (re.*  (str.to.re "\x4eee") ) (re.union (re.*  (str.to.re "\x4eef") ) (re.union (re.*  (str.to.re "\x4ef0") ) (re.union (re.*  (str.to.re "\x4ef1") ) (re.union (re.*  (str.to.re "\x4ef2") ) (re.union (re.*  (str.to.re "\x4ef3") ) (re.union (re.*  (str.to.re "\x4ef4") ) (re.union (re.*  (str.to.re "\x4ef5") ) (re.union (re.*  (str.to.re "\x4ef6") ) (re.union (re.*  (str.to.re "\x4ef7") ) (re.union (re.*  (str.to.re "\x4ef8") ) (re.union (re.*  (str.to.re "\x4ef9") ) (re.union (re.*  (str.to.re "\x4efa") ) (re.union (re.*  (str.to.re "\x4efb") ) (re.union (re.*  (str.to.re "\x4efc") ) (re.union (re.*  (str.to.re "\x4efd") ) (re.union (re.*  (str.to.re "\x4efe") ) (re.union (re.*  (str.to.re "\x4eff") ) (re.union (re.*  (str.to.re "\x4f00") ) (re.union (re.*  (str.to.re "\x4f01") ) (re.union (re.*  (str.to.re "\x4f02") ) (re.union (re.*  (str.to.re "\x4f03") ) (re.union (re.*  (str.to.re "\x4f04") ) (re.union (re.*  (str.to.re "\x4f05") ) (re.union (re.*  (str.to.re "\x4f06") ) (re.union (re.*  (str.to.re "\x4f07") ) (re.union (re.*  (str.to.re "\x4f08") ) (re.union (re.*  (str.to.re "\x4f09") ) (re.union (re.*  (str.to.re "\x4f0a") ) (re.union (re.*  (str.to.re "\x4f0b") ) (re.union (re.*  (str.to.re "\x4f0c") ) (re.union (re.*  (str.to.re "\x4f0d") ) (re.union (re.*  (str.to.re "\x4f0e") ) (re.union (re.*  (str.to.re "\x4f0f") ) (re.union (re.*  (str.to.re "\x4f10") ) (re.union (re.*  (str.to.re "\x4f11") ) (re.union (re.*  (str.to.re "\x4f12") ) (re.union (re.*  (str.to.re "\x4f13") ) (re.union (re.*  (str.to.re "\x4f14") ) (re.union (re.*  (str.to.re "\x4f15") ) (re.union (re.*  (str.to.re "\x4f16") ) (re.union (re.*  (str.to.re "\x4f17") ) (re.union (re.*  (str.to.re "\x4f18") ) (re.union (re.*  (str.to.re "\x4f19") ) (re.union (re.*  (str.to.re "\x4f1a") ) (re.union (re.*  (str.to.re "\x4f1b") ) (re.*  (str.to.re "\x4f1c") ))))))))))))))))))))))))))))))))))))))))))))))))))))))))))))))))))))))))))))))))))))))))))))))))))))))))))))))))))))))))))))))))))))))))))))))))))))))))))))))))))))))))))))))))))))))))))))))))))))))))))))))))))))))))))))))))))))))))))))))))))))))))))))))))))))))))))))))))))))))))))))))
(assert (str.in.re x (re.++ (re.opt  (str.to.re "\x4e01") ) (re.++ (re.opt  (str.to.re "\x4e02") ) (re.++ (re.opt  (str.to.re "\x4e03") ) (re.++ (re.opt  (str.to.re "\x4e04") ) (re.++ (re.opt  (str.to.re "\x4e05") ) (re.++ (re.opt  (str.to.re "\x4e06") ) (re.++ (re.opt  (str.to.re "\x4e07") ) (re.++ (re.opt  (str.to.re "\x4e08") ) (re.++ (re.opt  (str.to.re "\x4e09") ) (re.++ (re.opt  (str.to.re "\x4e0a") ) (re.++ (re.opt  (str.to.re "\x4e0b") ) (re.++ (re.opt  (str.to.re "\x4e0c") ) (re.++ (re.opt  (str.to.re "\x4e0d") ) (re.++ (re.opt  (str.to.re "\x4e0e") ) (re.++ (re.opt  (str.to.re "\x4e0f") ) (re.++ (re.opt  (str.to.re "\x4e10") ) (re.++ (re.opt  (str.to.re "\x4e11") ) (re.++ (re.opt  (str.to.re "\x4e12") ) (re.++ (re.opt  (str.to.re "\x4e13") ) (re.++ (re.opt  (str.to.re "\x4e14") ) (re.++ (re.opt  (str.to.re "\x4e15") ) (re.++ (re.opt  (str.to.re "\x4e16") ) (re.++ (re.opt  (str.to.re "\x4e17") ) (re.++ (re.opt  (str.to.re "\x4e18") ) (re.++ (re.opt  (str.to.re "\x4e19") ) (re.++ (re.opt  (str.to.re "\x4e1a") ) (re.++ (re.opt  (str.to.re "\x4e1b") ) (re.++ (re.opt  (str.to.re "\x4e1c") ) (re.++ (re.opt  (str.to.re "\x4e1d") ) (re.++ (re.opt  (str.to.re "\x4e1e") ) (re.++ (re.opt  (str.to.re "\x4e1f") ) (re.++ (re.opt  (str.to.re "\x4e20") ) (re.++ (re.opt  (str.to.re "\x4e21") ) (re.++ (re.opt  (str.to.re "\x4e22") ) (re.++ (re.opt  (str.to.re "\x4e23") ) (re.++ (re.opt  (str.to.re "\x4e24") ) (re.++ (re.opt  (str.to.re "\x4e25") ) (re.++ (re.opt  (str.to.re "\x4e26") ) (re.++ (re.opt  (str.to.re "\x4e27") ) (re.++ (re.opt  (str.to.re "\x4e28") ) (re.++ (re.opt  (str.to.re "\x4e29") ) (re.++ (re.opt  (str.to.re "\x4e2a") ) (re.++ (re.opt  (str.to.re "\x4e2b") ) (re.++ (re.opt  (str.to.re "\x4e2c") ) (re.++ (re.opt  (str.to.re "\x4e2d") ) (re.++ (re.opt  (str.to.re "\x4e2e") ) (re.++ (re.opt  (str.to.re "\x4e2f") ) (re.++ (re.opt  (str.to.re "\x4e30") ) (re.++ (re.opt  (str.to.re "\x4e31") ) (re.++ (re.opt  (str.to.re "\x4e32") ) (re.++ (re.opt  (str.to.re "\x4e33") ) (re.++ (re.opt  (str.to.re "\x4e34") ) (re.++ (re.opt  (str.to.re "\x4e35") ) (re.++ (re.opt  (str.to.re "\x4e36") ) (re.++ (re.opt  (str.to.re "\x4e37") ) (re.++ (re.opt  (str.to.re "\x4e38") ) (re.++ (re.opt  (str.to.re "\x4e39") ) (re.++ (re.opt  (str.to.re "\x4e3a") ) (re.++ (re.opt  (str.to.re "\x4e3b") ) (re.++ (re.opt  (str.to.re "\x4e3c") ) (re.++ (re.opt  (str.to.re "\x4e3d") ) (re.++ (re.opt  (str.to.re "\x4e3e") ) (re.++ (re.opt  (str.to.re "\x4e3f") ) (re.++ (re.opt  (str.to.re "\x4e40") ) (re.++ (re.opt  (str.to.re "\x4e41") ) (re.++ (re.opt  (str.to.re "\x4e42") ) (re.++ (re.opt  (str.to.re "\x4e43") ) (re.++ (re.opt  (str.to.re "\x4e44") ) (re.++ (re.opt  (str.to.re "\x4e45") ) (re.++ (re.opt  (str.to.re "\x4e46") ) (re.++ (re.opt  (str.to.re "\x4e47") ) (re.++ (re.opt  (str.to.re "\x4e48") ) (re.++ (re.opt  (str.to.re "\x4e49") ) (re.++ (re.opt  (str.to.re "\x4e4a") ) (re.++ (re.opt  (str.to.re "\x4e4b") ) (re.++ (re.opt  (str.to.re "\x4e4c") ) (re.++ (re.opt  (str.to.re "\x4e4d") ) (re.++ (re.opt  (str.to.re "\x4e4e") ) (re.++ (re.opt  (str.to.re "\x4e4f") ) (re.++ (re.opt  (str.to.re "\x4e50") ) (re.++ (re.opt  (str.to.re "\x4e51") ) (re.++ (re.opt  (str.to.re "\x4e52") ) (re.++ (re.opt  (str.to.re "\x4e53") ) (re.++ (re.opt  (str.to.re "\x4e54") ) (re.++ (re.opt  (str.to.re "\x4e55") ) (re.++ (re.opt  (str.to.re "\x4e56") ) (re.++ (re.opt  (str.to.re "\x4e57") ) (re.++ (re.opt  (str.to.re "\x4e58") ) (re.++ (re.opt  (str.to.re "\x4e59") ) (re.++ (re.opt  (str.to.re "\x4e5a") ) (re.++ (re.opt  (str.to.re "\x4e5b") ) (re.++ (re.opt  (str.to.re "\x4e5c") ) (re.++ (re.opt  (str.to.re "\x4e5d") ) (re.++ (re.opt  (str.to.re "\x4e5e") ) (re.++ (re.opt  (str.to.re "\x4e5f") ) (re.++ (re.opt  (str.to.re "\x4e60") ) (re.++ (re.opt  (str.to.re "\x4e61") ) (re.++ (re.opt  (str.to.re "\x4e62") ) (re.++ (re.opt  (str.to.re "\x4e63") ) (re.++ (re.opt  (str.to.re "\x4e64") ) (re.++ (re.opt  (str.to.re "\x4e65") ) (re.++ (re.opt  (str.to.re "\x4e66") ) (re.++ (re.opt  (str.to.re "\x4e67") ) (re.++ (re.opt  (str.to.re "\x4e68") ) (re.++ (re.opt  (str.to.re "\x4e69") ) (re.++ (re.opt  (str.to.re "\x4e6a") ) (re.++ (re.opt  (str.to.re "\x4e6b") ) (re.++ (re.opt  (str.to.re "\x4e6c") ) (re.++ (re.opt  (str.to.re "\x4e6d") ) (re.++ (re.opt  (str.to.re "\x4e6e") ) (re.++ (re.opt  (str.to.re "\x4e6f") ) (re.++ (re.opt  (str.to.re "\x4e70") ) (re.++ (re.opt  (str.to.re "\x4e71") ) (re.++ (re.opt  (str.to.re "\x4e72") ) (re.++ (re.opt  (str.to.re "\x4e73") ) (re.++ (re.opt  (str.to.re "\x4e74") ) (re.++ (re.opt  (str.to.re "\x4e75") ) (re.++ (re.opt  (str.to.re "\x4e76") ) (re.++ (re.opt  (str.to.re "\x4e77") ) (re.++ (re.opt  (str.to.re "\x4e78") ) (re.++ (re.opt  (str.to.re "\x4e79") ) (re.++ (re.opt  (str.to.re "\x4e7a") ) (re.++ (re.opt  (str.to.re "\x4e7b") ) (re.++ (re.opt  (str.to.re "\x4e7c") ) (re.++ (re.opt  (str.to.re "\x4e7d") ) (re.++ (re.opt  (str.to.re "\x4e7e") ) (re.++ (re.opt  (str.to.re "\x4e7f") ) (re.++ (re.opt  (str.to.re "\x4e80") ) (re.++ (re.opt  (str.to.re "\x4e81") ) (re.++ (re.opt  (str.to.re "\x4e82") ) (re.++ (re.opt  (str.to.re "\x4e83") ) (re.++ (re.opt  (str.to.re "\x4e84") ) (re.++ (re.opt  (str.to.re "\x4e85") ) (re.++ (re.opt  (str.to.re "\x4e86") ) (re.++ (re.opt  (str.to.re "\x4e87") ) (re.++ (re.opt  (str.to.re "\x4e88") ) (re.++ (re.opt  (str.to.re "\x4e89") ) (re.++ (re.opt  (str.to.re "\x4e8a") ) (re.++ (re.opt  (str.to.re "\x4e8b") ) (re.++ (re.opt  (str.to.re "\x4e8c") ) (re.++ (re.opt  (str.to.re "\x4e8d") ) (re.++ (re.opt  (str.to.re "\x4e8e") ) (re.++ (re.opt  (str.to.re "\x4e8f") ) (re.++ (re.opt  (str.to.re "\x4e90") ) (re.++ (re.opt  (str.to.re "\x4e91") ) (re.++ (re.opt  (str.to.re "\x4e92") ) (re.++ (re.opt  (str.to.re "\x4e93") ) (re.++ (re.opt  (str.to.re "\x4e94") ) (re.++ (re.opt  (str.to.re "\x4e95") ) (re.++ (re.opt  (str.to.re "\x4e96") ) (re.++ (re.opt  (str.to.re "\x4e97") ) (re.++ (re.opt  (str.to.re "\x4e98") ) (re.++ (re.opt  (str.to.re "\x4e99") ) (re.++ (re.opt  (str.to.re "\x4e9a") ) (re.++ (re.opt  (str.to.re "\x4e9b") ) (re.++ (re.opt  (str.to.re "\x4e9c") ) (re.++ (re.opt  (str.to.re "\x4e9d") ) (re.++ (re.opt  (str.to.re "\x4e9e") ) (re.++ (re.opt  (str.to.re "\x4e9f") ) (re.++ (re.opt  (str.to.re "\x4ea0") ) (re.++ (re.opt  (str.to.re "\x4ea1") ) (re.++ (re.opt  (str.to.re "\x4ea2") ) (re.++ (re.opt  (str.to.re "\x4ea3") ) (re.++ (re.opt  (str.to.re "\x4ea4") ) (re.++ (re.opt  (str.to.re "\x4ea5") ) (re.++ (re.opt  (str.to.re "\x4ea6") ) (re.++ (re.opt  (str.to.re "\x4ea7") ) (re.++ (re.opt  (str.to.re "\x4ea8") ) (re.++ (re.opt  (str.to.re "\x4ea9") ) (re.++ (re.opt  (str.to.re "\x4eaa") ) (re.++ (re.opt  (str.to.re "\x4eab") ) (re.++ (re.opt  (str.to.re "\x4eac") ) (re.++ (re.opt  (str.to.re "\x4ead") ) (re.++ (re.opt  (str.to.re "\x4eae") ) (re.++ (re.opt  (str.to.re "\x4eaf") ) (re.++ (re.opt  (str.to.re "\x4eb0") ) (re.++ (re.opt  (str.to.re "\x4eb1") ) (re.++ (re.opt  (str.to.re "\x4eb2") ) (re.++ (re.opt  (str.to.re "\x4eb3") ) (re.++ (re.opt  (str.to.re "\x4eb4") ) (re.++ (re.opt  (str.to.re "\x4eb5") ) (re.++ (re.opt  (str.to.re "\x4eb6") ) (re.++ (re.opt  (str.to.re "\x4eb7") ) (re.++ (re.opt  (str.to.re "\x4eb8") ) (re.++ (re.opt  (str.to.re "\x4eb9") ) (re.++ (re.opt  (str.to.re "\x4eba") ) (re.++ (re.opt  (str.to.re "\x4ebb") ) (re.++ (re.opt  (str.to.re "\x4ebc") ) (re.++ (re.opt  (str.to.re "\x4ebd") ) (re.++ (re.opt  (str.to.re "\x4ebe") ) (re.++ (re.opt  (str.to.re "\x4ebf") ) (re.++ (re.opt  (str.to.re "\x4ec0") ) (re.++ (re.opt  (str.to.re "\x4ec1") ) (re.++ (re.opt  (str.to.re "\x4ec2") ) (re.++ (re.opt  (str.to.re "\x4ec3") ) (re.++ (re.opt  (str.to.re "\x4ec4") ) (re.++ (re.opt  (str.to.re "\x4ec5") ) (re.++ (re.opt  (str.to.re "\x4ec6") ) (re.++ (re.opt  (str.to.re "\x4ec7") ) (re.++ (re.opt  (str.to.re "\x4ec8") ) (re.++ (re.opt  (str.to.re "\x4ec9") ) (re.++ (re.opt  (str.to.re "\x4eca") ) (re.++ (re.opt  (str.to.re "\x4ecb") ) (re.++ (re.opt  (str.to.re "\x4ecc") ) (re.++ (re.opt  (str.to.re "\x4ecd") ) (re.++ (re.opt  (str.to.re "\x4ece") ) (re.++ (re.opt  (str.to.re "\x4ecf") ) (re.++ (re.opt  (str.to.re "\x4ed0") ) (re.++ (re.opt  (str.to.re "\x4ed1") ) (re.++ (re.opt  (str.to.re "\x4ed2") ) (re.++ (re.opt  (str.to.re "\x4ed3") ) (re.++ (re.opt  (str.to.re "\x4ed4") ) (re.++ (re.opt  (str.to.re "\x4ed5") ) (re.++ (re.opt  (str.to.re "\x4ed6") ) (re.++ (re.opt  (str.to.re "\x4ed7") ) (re.++ (re.opt  (str.to.re "\x4ed8") ) (re.++ (re.opt  (str.to.re "\x4ed9") ) (re.++ (re.opt  (str.to.re "\x4eda") ) (re.++ (re.opt  (str.to.re "\x4edb") ) (re.++ (re.opt  (str.to.re "\x4edc") ) (re.++ (re.opt  (str.to.re "\x4edd") ) (re.++ (re.opt  (str.to.re "\x4ede") ) (re.++ (re.opt  (str.to.re "\x4edf") ) (re.++ (re.opt  (str.to.re "\x4ee0") )  (str.to.re "\x4ee1")))))))))))))))))))))))))))))))))))))))))))))))))))))))))))))))))))))))))))))))))))))))))))))))))))))))))))))))))))))))))))))))))))))))))))))))))))))))))))))))))))))))))))))))))))))))))))))))))))))))))))))))))))))))))))))))))))
(check-sat)
(get-model)